NAME: data/ch150.tsp/ch150.tsp.tour
TYPE: TOUR
DIMENSION: 150
SOLUTION: 5929
TOUR_SECTION
0, 97
97, 102
102, 86
86, 33
33, 75
75, 72
72, 47
47, 62
62, 29
29, 83
83, 6
6, 7
7, 88
88, 95
95, 34
34, 92
92, 125
125, 32
32, 51
51, 123
123, 110
110, 104
104, 15
15, 58
58, 78
78, 14
14, 77
77, 120
120, 132
132, 87
87, 93
93, 76
76, 121
121, 13
13, 79
79, 9
9, 112
112, 2
2, 61
61, 148
148, 124
124, 21
21, 130
130, 31
31, 22
22, 37
37, 66
66, 42
42, 108
108, 50
50, 19
19, 24
24, 109
109, 80
80, 28
28, 85
85, 134
134, 69
69, 107
107, 49
49, 57
57, 54
54, 46
46, 119
119, 41
41, 8
8, 27
27, 36
36, 5
5, 1
1, 138
138, 39
39, 52
52, 23
23, 117
117, 11
11, 18
18, 98
98, 113
113, 101
101, 126
126, 68
68, 35
35, 60
60, 10
10, 147
147, 129
129, 140
140, 115
115, 100
100, 40
40, 56
56, 38
38, 71
71, 48
48, 146
146, 143
143, 144
144, 128
128, 26
26, 30
30, 136
136, 91
91, 53
53, 45
45, 137
137, 133
133, 89
89, 111
111, 135
135, 63
63, 73
73, 122
122, 12
12, 105
105, 90
90, 118
118, 67
67, 127
127, 44
44, 70
70, 43
43, 3
3, 103
103, 114
114, 149
149, 16
16, 65
65, 59
59, 131
131, 64
64, 116
116, 20
20, 96
96, 99
99, 142
142, 4
4, 106
106, 94
94, 81
81, 139
139, 17
17, 141
141, 84
84, 74
74, 25
25, 145
145, 55
55, 82
EOF